580,93
838,-79
681,376
548,474
633,441
658,554
803,646
201,406
339,295
681,766
787,512
787,460
787,512
709,415
597,490
387,555
681,76
681,256
850,237
998,-30
850,237
765,322
847,-107
765,322
597,490
597,939
436,887
981,406
705,423
1041,766
1117,723
681,376
667,318
641,326
681,316
681,256
580,93
